(set-logic QF_FP)
(set-option :produce-models true)
(set-info :source |Random FP created by PyMPF|)
(set-info :category random)
(set-info :status sat)
(declare-const x Float32)
(assert (= x (fp #b0 #b10100010 #b11101000100010011001110)))
(declare-const y Float32)
(assert (= y (fp #b0 #b00000000 #b00111011001111000101100)))
(declare-const result Float32)
(assert (= result (fp.max x y)))
(assert (= result ((_ to_fp 8 24) #x517444CE)))
(check-sat)
(exit)
